Geographic Exponential Decay
20 262 282 246 229 235 32 177 51 308 138 161 206 148 223 316 221 89 14 176 250
p edge 320 632
e 0 38 1.0
e 1 277 2.0
e 2 156 3.0
e 3 40 1.0
e 4 181 2.0
e 5 43 4.0
e 6 308 95.0
e 6 152 30.0
e 7 143 4.0
e 7 198 2.0
e 8 305 5.0
e 8 9 1.0
e 10 162 1.0
e 10 12 6.0
e 11 181 1.0
e 12 103 3.0
e 12 61 4.0
e 13 217 1.0
e 14 273 75.0
e 14 147 75.0
e 14 292 38.0
e 14 47 56.0
e 14 62 60.0
e 14 248 69.0
e 14 240 77.0
e 14 276 78.0
e 14 185 77.0
e 14 228 95.0
e 14 67 90.0
e 14 117 5.0
e 14 9 82.0
e 14 236 20.0
e 14 118 96.0
e 14 60 42.0
e 14 231 18.0
e 15 119 1.0
e 16 277 1.0
e 16 135 2.0
e 17 206 1.0
e 18 94 9.0
e 19 263 1.0
e 20 195 1.0
e 21 94 5.0
e 22 75 1.0
e 23 58 1.0
e 24 224 3.0
e 25 8 1.0
e 25 161 36.0
e 26 44 1.0
e 27 4 1.0
e 28 231 1.0
e 29 134 1.0
e 30 184 1.0
e 30 169 2.0
e 31 61 3.0
e 31 204 1.0
e 32 84 37.0
e 32 211 31.0
e 32 246 96.0
e 32 310 48.0
e 32 187 25.0
e 32 15 21.0
e 32 46 87.0
e 32 201 6.0
e 32 143 6.0
e 32 167 93.0
e 32 157 74.0
e 32 313 73.0
e 32 209 3.0
e 32 132 75.0
e 32 66 74.0
e 32 195 25.0
e 32 264 51.0
e 33 301 1.0
e 34 33 2.0
e 34 296 9.0
e 35 307 1.0
e 36 194 12.0
e 37 295 2.0
e 37 85 12.0
e 37 128 8.0
e 38 283 2.0
e 39 98 1.0
e 41 94 1.0
e 42 130 1.0
e 43 270 2.0
e 45 35 18.0
e 45 99 19.0
e 45 144 3.0
e 45 25 21.0
e 45 16 9.0
e 46 221 70.0
e 47 167 2.0
e 47 118 9.0
e 48 316 48.0
e 49 245 1.0
e 50 275 9.0
e 50 276 1.0
e 51 97 1.0
e 51 47 64.0
e 51 156 7.0
e 51 268 29.0
e 51 219 82.0
e 51 184 85.0
e 51 290 14.0
e 51 282 46.0
e 51 186 72.0
e 51 176 21.0
e 51 136 84.0
e 51 147 43.0
e 51 204 67.0
e 51 183 95.0
e 51 256 10.0
e 51 267 97.0
e 51 131 85.0
e 52 188 1.0
e 52 82 5.0
e 53 197 1.0
e 53 72 2.0
e 54 202 2.0
e 54 268 4.0
e 55 61 4.0
e 55 215 5.0
e 56 278 8.0
e 56 303 9.0
e 56 301 8.0
e 57 126 1.0
e 57 245 1.0
e 59 246 27.0
e 59 314 1.0
e 63 291 5.0
e 64 2 1.0
e 65 177 24.0
e 65 86 9.0
e 65 185 8.0
e 68 112 20.0
e 68 192 12.0
e 68 280 45.0
e 68 34 46.0
e 68 281 5.0
e 68 197 26.0
e 68 24 15.0
e 68 260 13.0
e 68 235 52.0
e 69 173 1.0
e 70 317 5.0
e 70 302 12.0
e 71 28 1.0
e 73 136 2.0
e 73 42 4.0
e 73 144 2.0
e 74 47 11.0
e 74 54 11.0
e 74 241 18.0
e 76 1 12.0
e 76 244 10.0
e 76 123 12.0
e 77 22 5.0
e 77 180 1.0
e 78 259 1.0
e 79 151 5.0
e 79 102 1.0
e 79 16 18.0
e 79 230 21.0
e 79 314 10.0
e 80 220 8.0
e 80 33 4.0
e 81 56 8.0
e 83 121 7.0
e 83 12 9.0
e 83 195 4.0
e 85 26 1.0
e 85 117 2.0
e 87 7 3.0
e 88 44 4.0
e 88 78 4.0
e 89 53 5.0
e 89 81 97.0
e 89 72 47.0
e 89 23 96.0
e 89 136 3.0
e 89 318 50.0
e 89 218 14.0
e 89 279 74.0
e 89 58 3.0
e 89 144 72.0
e 89 232 9.0
e 89 311 60.0
e 89 141 98.0
e 89 47 34.0
e 89 168 54.0
e 89 67 97.0
e 89 224 51.0
e 90 0 1.0
e 90 238 5.0
e 91 260 1.0
e 92 182 1.0
e 93 5 11.0
e 93 258 20.0
e 93 155 12.0
e 95 261 1.0
e 96 229 58.0
e 99 213 14.0
e 99 272 14.0
e 99 230 25.0
e 99 26 13.0
e 100 79 23.0
e 100 202 1.0
e 101 308 17.0
e 102 46 3.0
e 104 39 2.0
e 105 22 1.0
e 106 131 1.0
e 106 40 4.0
e 107 255 1.0
e 108 14 55.0
e 109 191 8.0
e 109 144 9.0
e 109 110 20.0
e 109 6 15.0
e 109 213 9.0
e 110 244 4.0
e 111 310 1.0
e 112 55 29.0
e 112 276 24.0
e 112 76 24.0
e 112 254 48.0
e 112 281 49.0
e 112 204 9.0
e 112 58 35.0
e 112 233 25.0
e 113 182 3.0
e 114 163 1.0
e 114 145 3.0
e 115 67 1.0
e 115 208 2.0
e 116 16 5.0
e 116 191 10.0
e 116 307 2.0
e 120 257 11.0
e 122 295 5.0
e 124 221 52.0
e 124 199 10.0
e 124 157 1.0
e 125 104 2.0
e 125 105 4.0
e 126 244 4.0
e 127 305 4.0
e 127 134 3.0
e 129 203 12.0
e 129 267 5.0
e 129 149 1.0
e 130 222 19.0
e 130 111 19.0
e 130 4 16.0
e 130 106 7.0
e 132 46 2.0
e 133 78 1.0
e 133 264 2.0
e 137 273 1.0
e 137 1 1.0
e 138 34 4.0
e 138 183 29.0
e 138 75 93.0
e 138 187 91.0
e 138 3 83.0
e 138 95 55.0
e 138 17 17.0
e 138 0 7.0
e 138 216 23.0
e 138 218 66.0
e 138 113 77.0
e 138 210 70.0
e 138 4 3.0
e 138 80 69.0
e 138 145 49.0
e 138 132 93.0
e 138 179 57.0
e 139 2 1.0
e 140 241 1.0
e 141 147 9.0
e 141 259 4.0
e 142 117 1.0
e 146 163 1.0
e 146 245 4.0
e 148 266 3.0
e 148 204 73.0
e 148 50 8.0
e 148 164 3.0
e 148 162 69.0
e 148 68 6.0
e 148 102 14.0
e 148 27 84.0
e 148 100 49.0
e 148 22 43.0
e 148 318 22.0
e 148 209 43.0
e 148 23 58.0
e 148 159 4.0
e 148 255 53.0
e 148 127 6.0
e 148 210 100.0
e 150 129 2.0
e 152 116 49.0
e 152 10 34.0
e 152 281 42.0
e 152 172 31.0
e 152 284 23.0
e 152 35 13.0
e 152 277 35.0
e 152 64 7.0
e 153 221 41.0
e 154 160 5.0
e 154 262 53.0
e 154 143 10.0
e 158 139 15.0
e 158 169 4.0
e 158 70 13.0
e 158 252 15.0
e 158 142 15.0
e 159 189 11.0
e 159 177 29.0
e 161 292 94.0
e 161 119 62.0
e 161 31 19.0
e 161 225 89.0
e 161 5 36.0
e 161 318 42.0
e 161 319 35.0
e 161 245 32.0
e 161 214 28.0
e 161 20 95.0
e 161 223 43.0
e 161 117 48.0
e 161 75 34.0
e 161 290 5.0
e 161 226 48.0
e 161 113 72.0
e 165 225 6.0
e 166 250 42.0
e 166 191 6.0
e 166 3 1.0
e 170 126 1.0
e 171 95 1.0
e 174 211 2.0
e 175 34 3.0
e 176 153 67.0
e 176 181 22.0
e 176 177 76.0
e 176 45 51.0
e 176 137 34.0
e 176 18 48.0
e 176 42 36.0
e 176 35 91.0
e 176 249 97.0
e 176 275 52.0
e 176 233 3.0
e 176 225 3.0
e 176 72 81.0
e 176 33 65.0
e 176 290 25.0
e 176 161 22.0
e 177 220 65.0
e 177 88 70.0
e 177 127 64.0
e 177 106 38.0
e 177 77 14.0
e 177 306 21.0
e 177 1 63.0
e 177 227 71.0
e 177 128 86.0
e 177 236 23.0
e 177 152 75.0
e 177 103 57.0
e 177 276 32.0
e 177 215 53.0
e 178 246 78.0
e 188 28 5.0
e 190 247 1.0
e 192 31 1.0
e 192 137 1.0
e 193 229 70.0
e 193 188 17.0
e 193 118 15.0
e 193 94 13.0
e 193 129 10.0
e 194 160 1.0
e 194 69 8.0
e 196 77 1.0
e 198 272 2.0
e 199 36 3.0
e 199 110 2.0
e 199 75 1.0
e 199 82 12.0
e 200 74 6.0
e 200 305 2.0
e 201 83 11.0
e 205 256 2.0
e 206 236 55.0
e 206 223 100.0
e 206 238 99.0
e 206 252 13.0
e 206 94 60.0
e 206 304 86.0
e 206 110 64.0
e 206 127 37.0
e 206 288 15.0
e 206 239 7.0
e 206 194 25.0
e 206 111 18.0
e 206 183 76.0
e 206 219 94.0
e 206 88 51.0
e 206 3 67.0
e 207 31 1.0
e 207 109 2.0
e 208 90 2.0
e 212 165 1.0
e 212 210 4.0
e 217 294 24.0
e 218 19 1.0
e 220 249 11.0
e 220 38 3.0
e 220 87 1.0
e 221 18 23.0
e 221 59 26.0
e 221 269 50.0
e 221 232 37.0
e 221 288 91.0
e 221 8 82.0
e 221 299 45.0
e 221 82 3.0
e 221 238 39.0
e 221 198 24.0
e 221 129 50.0
e 221 181 3.0
e 221 178 22.0
e 221 191 87.0
e 222 237 7.0
e 222 309 7.0
e 223 146 2.0
e 223 203 31.0
e 223 296 65.0
e 223 5 68.0
e 223 56 68.0
e 223 240 71.0
e 223 176 93.0
e 223 193 41.0
e 223 222 44.0
e 223 194 69.0
e 223 246 6.0
e 223 91 62.0
e 223 239 40.0
e 223 302 29.0
e 223 196 57.0
e 226 195 4.0
e 229 92 82.0
e 229 18 86.0
e 229 20 63.0
e 229 197 86.0
e 229 166 32.0
e 229 113 60.0
e 229 233 39.0
e 229 154 11.0
e 229 190 56.0
e 229 159 56.0
e 229 98 80.0
e 229 134 30.0
e 229 288 57.0
e 229 126 42.0
e 229 130 67.0
e 232 306 2.0
e 232 275 3.0
e 232 313 24.0
e 234 290 10.0
e 234 6 11.0
e 234 315 7.0
e 235 36 58.0
e 235 223 33.0
e 235 48 10.0
e 235 92 63.0
e 235 130 5.0
e 235 143 56.0
e 235 66 14.0
e 235 281 73.0
e 235 149 94.0
e 235 164 32.0
e 235 267 85.0
e 235 121 96.0
e 235 106 9.0
e 235 161 68.0
e 235 311 10.0
e 235 91 89.0
e 237 200 9.0
e 237 139 4.0
e 241 266 19.0
e 241 17 25.0
e 241 92 4.0
e 242 6 1.0
e 243 257 1.0
e 243 231 6.0
e 243 282 29.0
e 246 214 72.0
e 246 179 28.0
e 246 20 13.0
e 246 17 86.0
e 246 202 3.0
e 246 263 11.0
e 246 248 40.0
e 246 101 48.0
e 246 125 86.0
e 246 30 89.0
e 246 144 61.0
e 246 216 73.0
e 246 162 73.0
e 249 61 1.0
e 250 177 54.0
e 250 7 79.0
e 250 104 5.0
e 250 234 12.0
e 250 84 89.0
e 250 220 27.0
e 250 315 78.0
e 250 302 57.0
e 250 176 52.0
e 250 205 55.0
e 250 232 20.0
e 250 306 83.0
e 250 162 57.0
e 250 172 16.0
e 250 263 89.0
e 250 219 89.0
e 251 114 3.0
e 253 243 11.0
e 254 0 5.0
e 256 182 2.0
e 257 304 4.0
e 258 267 5.0
e 258 314 21.0
e 258 14 72.0
e 258 86 11.0
e 262 207 63.0
e 262 287 9.0
e 262 317 82.0
e 262 223 6.0
e 262 291 65.0
e 262 77 9.0
e 262 225 47.0
e 262 51 75.0
e 262 160 95.0
e 262 130 70.0
e 262 271 30.0
e 262 30 95.0
e 262 76 50.0
e 262 197 52.0
e 262 288 86.0
e 262 235 77.0
e 265 100 3.0
e 265 62 3.0
e 268 228 8.0
e 274 89 71.0
e 279 60 1.0
e 280 133 8.0
e 280 284 4.0
e 282 206 90.0
e 282 71 31.0
e 282 158 95.0
e 282 171 71.0
e 282 222 65.0
e 282 196 10.0
e 282 160 62.0
e 282 97 79.0
e 282 93 58.0
e 282 312 68.0
e 282 168 87.0
e 282 293 12.0
e 282 108 22.0
e 282 104 26.0
e 282 302 23.0
e 283 161 37.0
e 285 53 5.0
e 286 236 1.0
e 287 55 4.0
e 287 205 3.0
e 289 291 2.0
e 294 51 67.0
e 294 191 7.0
e 294 237 8.0
e 294 221 49.0
e 296 76 1.0
e 297 14 55.0
e 298 78 2.0
e 299 7 6.0
e 299 111 12.0
e 300 304 4.0
e 300 128 3.0
e 302 248 2.0
e 303 285 16.0
e 303 183 17.0
e 303 169 12.0
e 303 65 10.0
e 308 97 57.0
e 308 83 62.0
e 308 90 43.0
e 308 62 83.0
e 308 119 32.0
e 308 67 78.0
e 308 131 82.0
e 308 8 71.0
e 308 254 89.0
e 308 84 86.0
e 308 283 21.0
e 308 133 86.0
e 308 210 19.0
e 308 187 87.0
e 308 255 26.0
e 316 225 62.0
e 316 131 39.0
e 316 102 18.0
e 316 282 87.0
e 316 134 23.0
e 316 184 32.0
e 316 259 76.0
e 316 257 33.0
e 316 205 73.0
e 316 29 30.0
e 316 49 5.0
e 316 209 17.0
e 316 180 58.0
e 316 237 53.0
e 316 105 1.0
e 316 214 84.0
